Test: hole016_shuffled.cnf
Options: -no-inverting-opt -sym-var-bump
WARNING: for repeatability, setting FPU to use double precision
============================[ Problem Statistics ]=============================
|                                                                             |
|  Number of symmetries:           31                                         |
|  Number of invertingSyms:         0                                         |
|  Number of variables:           272                                         |
|  Number of clauses:            2193                                         |
|  Parse time:                   0.00 s                                       |
|                                                                             |
============================[ Search Statistics ]==============================
| Conflicts |          ORIGINAL         |          LEARNT          | Progress |
|           |    Vars  Clauses Literals |    Limit  Clauses Lit/Cl |          |
===============================================================================
|       100 |     272     2193     4624 |      804      208     61 |  0.001 % |
|       250 |     272     2193     4624 |      884      501     61 |  0.001 % |
|       475 |     272     2193     4624 |      972      871     68 |  0.001 % |
|       812 |     272     2193     4624 |     1070      886     71 |  0.001 % |
|      1318 |     272     2193     4624 |     1177      851     60 |  0.001 % |
|      2077 |     272     2193     4624 |     1295      732     95 |  0.001 % |
|      3216 |     272     2193     4624 |     1424     1029    101 |  0.001 % |
|      4924 |     272     2193     4624 |     1566     1500    108 |  0.001 % |
|      7486 |     272     2193     4624 |     1723     1119    107 |  0.001 % |
|     11330 |     272     2193     4624 |     1896     1291    109 |  0.001 % |
|     17096 |     272     2193     4624 |     2085     1212    104 |  0.001 % |
|     25745 |     272     2193     4624 |     2294     2155    111 |  0.001 % |
|     38719 |     272     2193     4624 |     2523     1902    104 |  0.001 % |
|     58180 |     272     2193     4624 |     2775     2553    102 |  0.001 % |
|     87372 |     272     2193     4624 |     3053     2874    101 |  0.001 % |
|    131161 |     272     2193     4624 |     3358     2131    105 |  0.001 % |
|    196845 |     272     2193     4624 |     3694     1980     99 |  0.001 % |
|    295371 |     272     2193     4624 |     4064     3562    102 |  0.001 % |
|    443160 |     272     2193     4624 |     4470     4218    115 |  0.001 % |
|    664843 |     272     2193     4624 |     4917     4237     87 |  0.001 % |
|    997368 |     272     2193     4624 |     5409     3327     93 |  0.001 % |
|   1496156 |     272     2193     4624 |     5950     4190    100 |  0.001 % |
|   2244338 |     272     2193     4624 |     6545     3335     85 |  0.001 % |
|   3366612 |     272     2193     4624 |     7200     5381    103 |  0.001 % |
|   5050023 |     272     2193     4624 |     7920     4893    102 |  0.001 % |
===============================================================================
restarts              : 8191
conflicts             : 5139993        (14911 /sec)
symconflicts          : 453516         (1316 /sec)
decisions             : 8115333        (0.00 % random) (23543 /sec)
propagations          : 107797843      (312728 /sec)
sympropagations       : 2621565        (7605 /sec)
conflict literals     : 548350832      (6.85 % deleted)
literals     : 548350832      (6.85 % deleted)

HEURISTIC USAGES
random                : 0           
activity w/ lookahead : 0           
activity no lookahead : 0           
original sp           : 8115333     
sym count             : 0           

Memory used           : 24.00 MB
CPU time              : 344.702 s

UNSATISFIABLE
